46
2 49 10 
2 61 19 
2 58 76 
2 94 79 
2 7 70 
2 28 1 
2 22 115 
2 46 55 
2 82 52 
2 67 31 
2 73 109 
2 103 97 
2 88 37 
2 25 91 
2 106 36 
2 43 40 
1 118 
3 16 64 8 
3 66 120 96 
3 4 34 47 
3 100 114 26 
3 13 112 104 
3 6 87 72 
3 85 111 86 
3 27 33 30 
3 75 39 45 
3 54 18 93 
3 102 108 90 
3 84 105 42 
3 99 24 57 
3 48 101 69 
3 41 3 17 
3 117 92 44 
3 9 68 98 
3 107 5 116 
3 113 89 2 
3 81 38 56 
3 14 65 35 
3 78 80 60 
3 71 23 119 
3 32 74 63 
3 21 29 110 
3 53 83 50 
3 12 20 77 
3 95 59 62 
3 11 51 15 
